language Essence 1.3

letting blksize_delta be
        function(1 --> 10, 2 --> 10, 3 --> 10, 4 --> 10, 5 --> 10, 6 --> 10, 7 --> 10, 8 --> 10, 9 --> 10, 10 --> 10,
                 11 --> 10, 12 --> 10, 13 --> 10, 14 --> 10, 15 --> 10, 16 --> 10, 17 --> 10, 18 --> 10, 19 --> 10,
                 20 --> 10, 21 --> 10, 22 --> 10, 23 --> 10, 24 --> 10, 25 --> 10, 26 --> 10, 27 --> 10, 28 --> 10,
                 29 --> 10, 30 --> 10, 31 --> 10, 32 --> 10, 33 --> 10, 34 --> 10, 35 --> 10, 36 --> 10, 37 --> 10,
                 38 --> 10, 39 --> 10, 40 --> 10, 41 --> 10, 42 --> 10, 43 --> 10, 44 --> 10, 45 --> 10, 46 --> 10,
                 47 --> 10, 48 --> 10, 49 --> 10, 50 --> 10, 51 --> 10, 52 --> 10, 53 --> 10, 54 --> 10, 55 --> 10,
                 56 --> 10, 57 --> 10)
letting maxcars be
        function(1 --> 8, 2 --> 8, 3 --> 9, 4 --> 10, 5 --> 8, 6 --> 8, 7 --> 8, 8 --> 8, 9 --> 9, 10 --> 8, 11 --> 8,
                 12 --> 9, 13 --> 8, 14 --> 8, 15 --> 8, 16 --> 8, 17 --> 10, 18 --> 8, 19 --> 8, 20 --> 8, 21 --> 8,
                 22 --> 8, 23 --> 8, 24 --> 8, 25 --> 8, 26 --> 8, 27 --> 8, 28 --> 8, 29 --> 8, 30 --> 8, 31 --> 8,
                 32 --> 8, 33 --> 9, 34 --> 8, 35 --> 8, 36 --> 8, 37 --> 8, 38 --> 8, 39 --> 9, 40 --> 8, 41 --> 8,
                 42 --> 10, 43 --> 8, 44 --> 8, 45 --> 8, 46 --> 8, 47 --> 8, 48 --> 8, 49 --> 8, 50 --> 8, 51 --> 8,
                 52 --> 8, 53 --> 8, 54 --> 8, 55 --> 8, 56 --> 8, 57 --> 8)
letting n_cars be 161
letting n_classes be 16
letting n_options be 57
letting quantity be
        function(1 --> 10, 2 --> 10, 3 --> 11, 4 --> 10, 5 --> 10, 6 --> 10, 7 --> 10, 8 --> 10, 9 --> 10, 10 --> 10,
                 11 --> 10, 12 --> 10, 13 --> 10, 14 --> 10, 15 --> 10, 16 --> 10)
letting usage be
        relation((1, 21), (2, 26), (2, 29), (2, 37), (2, 38), (2, 48), (3, 4), (3, 25), (3, 35), (3, 40), (4, 14),
                 (4, 25), (4, 28), (4, 29), (4, 33), (4, 34), (4, 42), (4, 49), (4, 54), (5, 6), (5, 11), (5, 15),
                 (5, 28), (5, 32), (5, 51), (6, 11), (6, 15), (6, 17), (6, 52), (7, 5), (7, 33), (7, 40), (7, 46),
                 (8, 24), (8, 42), (8, 51), (9, 9), (9, 17), (9, 26), (9, 33), (9, 40), (9, 41), (9, 50), (9, 56),
                 (10, 17), (10, 20), (10, 23), (10, 29), (10, 30), (10, 44), (11, 9), (11, 19), (11, 21), (11, 31),
                 (11, 43), (11, 52), (12, 17), (12, 35), (13, 2), (13, 13), (13, 30), (13, 44), (14, 2), (14, 8),
                 (14, 14), (14, 19), (14, 20), (14, 25), (14, 28), (14, 40), (14, 45), (14, 51), (15, 3), (15, 5),
                 (15, 6), (15, 7), (15, 10), (15, 12), (15, 16), (15, 18), (15, 21), (15, 22), (15, 24), (15, 27),
                 (15, 36), (15, 39), (15, 47), (15, 53), (15, 55), (16, 1), (16, 18), (16, 45), (16, 54), (16, 56),
                 (16, 57))
$ Visualisation for usage
$  1 21
$  2 26
$  2 29
$  2 37
$  2 38
$  2 48
$  3  4
$  3 25
$  3 35
$  3 40
$  4 14
$  4 25
$  4 28
$  4 29
$  4 33
$  4 34
$  4 42
$  4 49
$  4 54
$  5  6
$  5 11
$  5 15
$  5 28
$  5 32
$  5 51
$  6 11
$  6 15
$  6 17
$  6 52
$  7  5
$  7 33
$  7 40
$  7 46
$  8 24
$  8 42
$  8 51
$  9  9
$  9 17
$  9 26
$  9 33
$  9 40
$  9 41
$  9 50
$  9 56
$ 10 17
$ 10 20
$ 10 23
$ 10 29
$ 10 30
$ 10 44
$ 11  9
$ 11 19
$ 11 21
$ 11 31
$ 11 43
$ 11 52
$ 12 17
$ 12 35
$ 13  2
$ 13 13
$ 13 30
$ 13 44
$ 14  2
$ 14  8
$ 14 14
$ 14 19
$ 14 20
$ 14 25
$ 14 28
$ 14 40
$ 14 45
$ 14 51
$ 15  3
$ 15  5
$ 15  6
$ 15  7
$ 15 10
$ 15 12
$ 15 16
$ 15 18
$ 15 21
$ 15 22
$ 15 24
$ 15 27
$ 15 36
$ 15 39
$ 15 47
$ 15 53
$ 15 55
$ 16  1
$ 16 18
$ 16 45
$ 16 54
$ 16 56
$ 16 57

